
Log started (V12.10.0.0) Mon Apr  5 22:48:57 2021


Problem 'asset.lp' read.
Read time = 0.01 sec. (0.60 ticks)
New value for default parallel thread count: 1
New value for time limit in seconds: 150
Version identifier: 12.10.0.0 | 2019-11-26 | 843d4de
CPXPARAM_Threads                                 1
CPXPARAM_TimeLimit                               150
Found incumbent of value 0.000000 after 0.00 sec. (0.16 ticks)
Tried aggregator 3 times.
MIP Presolve eliminated 1759 rows and 602 columns.
MIP Presolve modified 4857 coefficients.
Aggregator did 1699 substitutions.
Reduced MIP has 1991 rows, 2514 columns, and 11235 nonzeros.
Reduced MIP has 2189 binaries, 263 generals, 0 SOSs, and 0 indicators.
Presolve time = 0.03 sec. (23.52 ticks)
Probing fixed 2 vars, tightened 0 bounds.
Probing time = 0.02 sec. (11.70 ticks)
Tried aggregator 1 time.
Detecting symmetries...
MIP Presolve eliminated 5 rows and 5 columns.
MIP Presolve modified 348 coefficients.
Reduced MIP has 1986 rows, 2509 columns, and 11126 nonzeros.
Reduced MIP has 2184 binaries, 263 generals, 0 SOSs, and 0 indicators.
Presolve time = 0.01 sec. (10.20 ticks)
Probing time = 0.00 sec. (2.92 ticks)
Clique table members: 6602.
MIP emphasis: balance optimality and feasibility.
MIP search method: dynamic search.
Parallel mode: none, using 1 thread.
Root relaxation solution time = 0.04 sec. (66.20 ticks)

        Nodes                                         Cuts/
   Node  Left     Objective  IInf  Best Integer    Best Bound    ItCnt     Gap

*     0+    0                            0.0000      332.0000              --- 
      0     0      332.0000   372        0.0000      332.0000      937     --- 
      0     0      332.0000   372        0.0000     Cuts: 174     1570     --- 
      0     0      332.0000   372        0.0000     Cuts: 286     2678     --- 
      0     0      332.0000   372        0.0000     Cuts: 596     3956     --- 
*     0+    0                            8.0000      332.0000              --- 
      0     0        cutoff              8.0000      332.0000     3956     --- 
Detecting symmetries...
      0     2      332.0000   346        8.0000      332.0000     3956     --- 
Elapsed time = 1.55 sec. (2127.73 ticks, tree = 0.01 MB, solutions = 1)
      2     4      332.0000   422        8.0000      332.0000     6567     --- 
      8    10      332.0000   376        8.0000      332.0000     8619     --- 
     13    15      330.0000   371        8.0000      332.0000    10084     --- 
     30    22      326.0000   377        8.0000      332.0000    12621     --- 
     36    26      309.1373   339        8.0000      332.0000    14846     --- 
     41    31      297.0244   306        8.0000      332.0000    16665     --- 
     65    52      284.4775   222        8.0000      332.0000    19285     --- 
    107    76      194.0000    61        8.0000      332.0000    23520     --- 
*   120+   78                          188.0000      332.0000            76.60%
    121    78      331.9580   436      188.0000      332.0000    26138   76.60%
    136    93      329.2884   403      188.0000      332.0000    33139   76.60%
Elapsed time = 4.22 sec. (6022.62 ticks, tree = 0.15 MB, solutions = 2)
    158   113      310.0386   308      188.0000      332.0000    43134   76.60%
    175   120      331.9191   448      188.0000      332.0000    49940   76.60%
    190   135      331.9191   400      188.0000      332.0000    56012   76.60%
    204   149      318.7532   360      188.0000      332.0000    65365   76.60%
    231   176      301.7811   284      188.0000      332.0000    74585   76.60%
    287   232      295.7775   292      188.0000      332.0000    84078   76.60%
    350   295      270.0000   225      188.0000      332.0000    95771   76.60%
    403   348      331.8461   430      188.0000      332.0000   102832   76.60%
    418   363      319.1187   401      188.0000      332.0000   112918   76.60%
    467   412      303.7659   292      188.0000      332.0000   121509   76.60%
Elapsed time = 11.54 sec. (16080.32 ticks, tree = 0.73 MB, solutions = 2)
    511   456      329.1311   372      188.0000      332.0000   132239   76.60%
    512   457      331.8457   499      188.0000      332.0000   135218   76.60%

Performing restart 1

Repeating presolve.
Tried aggregator 1 time.
MIP Presolve eliminated 8 rows and 2 columns.
MIP Presolve modified 2111 coefficients.
Reduced MIP has 1978 rows, 2507 columns, and 9266 nonzeros.
Reduced MIP has 2183 binaries, 262 generals, 0 SOSs, and 0 indicators.
Presolve time = 0.01 sec. (8.66 ticks)
Tried aggregator 1 time.
Reduced MIP has 1978 rows, 2507 columns, and 9266 nonzeros.
Reduced MIP has 2183 binaries, 262 generals, 0 SOSs, and 0 indicators.
Presolve time = 0.01 sec. (6.67 ticks)
Represolve time = 0.05 sec. (38.76 ticks)
    514     0      324.3007   596      188.0000     Cuts: 594   152330   72.50%
    514     0      320.8775   596      188.0000     Cuts: 502   156336   70.68%
    514     0      319.6380   596      188.0000     Cuts: 446   160214   70.02%
    514     0      317.8982   596      188.0000     Cuts: 341   164949   69.09%
    514     0      316.7824   596      188.0000     Cuts: 324   168106   68.50%
    514     0      316.0144   596      188.0000     Cuts: 330   170560   68.09%
    514     0      315.3971   596      188.0000     Cuts: 316   172757   67.76%
    514     0      314.7424   596      188.0000     Cuts: 316   175346   67.42%
    514     0      313.9883   596      188.0000     Cuts: 307   177602   67.02%
    514     0      313.2970   596      188.0000     Cuts: 389   179417   66.65%
    514     0      312.5048   596      188.0000     Cuts: 367   181684   66.23%
    514     0      311.9930   596      188.0000     Cuts: 303   184898   65.95%
    514     0      311.7579   596      188.0000     Cuts: 395   188984   65.83%
    514     0      311.4729   596      188.0000     Cuts: 252   190648   65.68%
    514     0      310.9045   596      188.0000     Cuts: 250   192695   65.37%
    514     0      310.5335   596      188.0000     Cuts: 314   193776   65.18%
    514     0      310.3031   596      188.0000     Cuts: 333   195567   65.05%
    514     0      309.9867   596      188.0000     Cuts: 297   197272   64.89%
    514     0      309.8199   596      188.0000     Cuts: 213   198847   64.80%
    514     0      309.6006   596      188.0000     Cuts: 294   201893   64.68%
    514     0      309.2330   596      188.0000     Cuts: 313   203524   64.49%
    514     0      309.0692   596      188.0000     Cuts: 266   205381   64.40%
    514     0      308.9471   596      188.0000     Cuts: 324   206993   64.33%
    514     0      308.8576   596      188.0000     Cuts: 332   208867   64.29%
    514     0      308.7505   596      188.0000     Cuts: 260   211094   64.23%
    514     0      308.6718   596      188.0000     Cuts: 325   212642   64.19%
    514     0      308.6535   596      188.0000     Cuts: 304   213330   64.18%
    514     0      308.6168   596      188.0000     Cuts: 204   214556   64.16%
    514     0      308.5982   596      188.0000     Cuts: 140   215002   64.15%
    514     0      308.5744   596      188.0000     Cuts: 268   215805   64.14%
    514     0      308.5581   596      188.0000     Cuts: 166   216151   64.13%
    514     0      308.5044   596      188.0000     Cuts: 216   217886   64.10%
*   514+    0                          198.0000      308.5044            55.81%
    514     0        cutoff            198.0000      308.5044   217886   55.81%
    514     2      308.5044   510      198.0000      308.5016   217886   55.81%
    516     4      303.5323   437      198.0000      308.4195   222074   55.77%
    519     7      306.1057   481      198.0000      308.4195   227791   55.77%
    521     9      308.2549   524      198.0000      308.4195   233475   55.77%
    523    11      301.9775   433      198.0000      308.4195   239146   55.77%
    525    13      307.6823   473      198.0000      308.4195   242738   55.77%
    528    16      307.0593   479      198.0000      308.4195   248053   55.77%
    530    18      303.6943   441      198.0000      308.4195   255035   55.77%
Elapsed time = 41.47 sec. (55117.52 ticks, tree = 0.04 MB, solutions = 3)
    532    20      301.0802   468      198.0000      308.4195   261315   55.77%
    534    22      303.8288   471      198.0000      308.4195   263588   55.77%
    536    24      300.6043   405      198.0000      308.4195   269105   55.77%
    542    30      301.3027   431      198.0000      308.4195   275017   55.77%
    544    32      301.0813   427      198.0000      308.4195   279757   55.77%
    546    34      295.4644   412      198.0000      308.4195   286003   55.77%
    551    39      295.7937   396      198.0000      308.4195   292621   55.77%
    554    42      291.9151   396      198.0000      308.4195   299331   55.77%
    558    46      294.9082   416      198.0000      308.4195   306479   55.77%
    565    53      299.1865   418      198.0000      308.4195   312139   55.77%
Elapsed time = 49.24 sec. (66847.93 ticks, tree = 0.12 MB, solutions = 3)
    571    59      297.4359   418      198.0000      308.4195   319597   55.77%
    574    62      294.9583   412      198.0000      308.4195   327376   55.77%
    579    67      295.0687   408      198.0000      308.4195   333509   55.77%
    586    74      295.3642   422      198.0000      308.4195   340448   55.77%
    593    81      289.6487   349      198.0000      308.4195   348998   55.77%
    600    88      293.2724   402      198.0000      308.4195   355713   55.77%
    609    93      292.1277   387      198.0000      308.4195   361189   55.77%
    613    97      288.7157   352      198.0000      308.4195   369327   55.77%
*   614+   96                          202.0000      308.4195            52.68%
*   614+   96                          204.0000      308.4195            51.19%
    614    98      282.6087   355      204.0000      308.4195   371957   51.19%
    619   103      287.5246   379      204.0000      308.4195   377351   51.19%
Elapsed time = 57.92 sec. (79486.65 ticks, tree = 0.30 MB, solutions = 5)
    626   110      286.4826   351      204.0000      308.4195   384505   51.19%
    634   118      285.6574   341      204.0000      308.4195   391412   51.19%
    645   129      283.8539   321      204.0000      308.4195   397368   51.19%
    654   138      284.5820   336      204.0000      308.4195   402364   51.19%
    662   146      280.3559   334      204.0000      308.4195   408811   51.19%
    673   157      271.3203   321      204.0000      308.4195   415600   51.19%
    682   166      277.9960   331      204.0000      308.4195   423001   51.19%
    693   177      274.7285   297      204.0000      308.4195   429458   51.19%
    701   185      269.5971   308      204.0000      308.4195   436890   51.19%
    715   197      271.5315   298      204.0000      308.4195   443013   51.19%
Elapsed time = 64.90 sec. (89848.18 ticks, tree = 0.43 MB, solutions = 5)
    733   209      266.8806   290      204.0000      308.4195   449026   51.19%
    757   221      308.3793   449      204.0000      308.3791   454324   51.17%
    763   227      301.8885   428      204.0000      308.3789   461148   51.17%
    768   232      307.6652   417      204.0000      308.3789   468630   51.17%
    773   237      305.1765   418      204.0000      308.3789   476838   51.17%
    776   240      304.5798   426      204.0000      308.3789   481512   51.17%
    780   244      304.2297   434      204.0000      308.3789   489156   51.17%
    787   251      304.0341   434      204.0000      308.3789   494036   51.17%
    791   255      298.9492   413      204.0000      308.3789   501649   51.17%
    796   260      300.8592   415      204.0000      308.3789   509300   51.17%
Elapsed time = 71.96 sec. (100410.54 ticks, tree = 0.53 MB, solutions = 5)
    801   265      296.7654   391      204.0000      308.3789   516823   51.17%
    809   273      299.4121   417      204.0000      308.3789   524797   51.17%
*   814+  276                          208.0000      308.3789            48.26%
    814   278      298.8789   391      208.0000      308.3789   533209   48.26%
    820   284      296.0572   392      208.0000      308.3789   541105   48.26%
    824   288      286.2190   378      208.0000      308.3789   549003   48.26%
    834   296      296.2826   380      208.0000      308.3789   555359   48.26%
    842   304      288.2105   387      208.0000      308.3789   562229   48.26%
    845   307      293.6148   374      208.0000      308.3789   570087   48.26%
    855   317      288.8123   352      208.0000      308.3789   573895   48.26%
    868   330      289.8084   354      208.0000      308.3789   579765   48.26%
Elapsed time = 79.43 sec. (111533.07 ticks, tree = 0.62 MB, solutions = 6)
    874   336      289.6293   357      208.0000      308.3789   582388   48.26%
    888   348      287.9180   350      208.0000      308.3789   590215   48.26%
    894   348      297.1059   396      208.0000      308.3628   600351   48.25%
    898   352      296.5000   425      208.0000      308.3628   606675   48.25%
    905   359      293.4551   400      208.0000      308.3628   612464   48.25%
    908   362      291.4557   440      208.0000      308.3628   619809   48.25%
    912   366      288.7865   388      208.0000      308.3628   626248   48.25%
    914   368      288.4081   381      208.0000      308.3628   627665   48.25%
    917   371      292.8883   352      208.0000      308.3567   636825   48.25%
    923   377      276.3901   305      208.0000      308.3567   643397   48.25%
Elapsed time = 89.79 sec. (125608.55 ticks, tree = 0.71 MB, solutions = 6)
    932   386      272.1240   292      208.0000      308.3567   648500   48.25%
    943   397      222.0000   116      208.0000      308.3567   653911   48.25%
    963   411      284.8069   403      208.0000      308.0895   662470   48.12%
    970   418      283.3324   411      208.0000      308.0895   669293   48.12%
    974   422      281.2770   399      208.0000      308.0895   675126   48.12%
    980   428      277.5782   324      208.0000      308.0895   682352   48.12%
    988   436      276.6037   361      208.0000      308.0895   688492   48.12%
    996   442      270.8654   290      208.0000      308.0895   694383   48.12%
   1008   454      264.2837   267      208.0000      308.0895   700767   48.12%
   1014   460      262.6865   292      208.0000      308.0895   702602   48.12%
Elapsed time = 102.51 sec. (142553.36 ticks, tree = 0.83 MB, solutions = 6)
   1034   476      290.5295   400      208.0000      308.0515   729715   48.10%
   1049   491      288.6133   358      208.0000      308.0515   760571   48.10%
   1077   515      278.2462   310      208.0000      308.0515   788475   48.10%
   1114   546      268.9781   283      208.0000      308.0515   796266   48.10%
   1134   562      284.5860   395      208.0000      308.0493   826249   48.10%
   1154   578      298.1746   412      208.0000      308.0367   855305   48.09%
   1184   608      264.9587   342      208.0000      308.0367   886874   48.09%
   1214   638      251.2651   281      208.0000      308.0367   907328   48.09%
   1252   672      280.5521   399      208.0000      307.8377   939398   48.00%
   1278   698      269.6505   313      208.0000      307.8377   966307   48.00%
Elapsed time = 132.61 sec. (183937.29 ticks, tree = 1.19 MB, solutions = 6)
   1304   717      300.5613   428      208.0000      307.7579   989708   47.96%
Starting limited solution polishing.
   1314   727      297.2888   395      208.0000      307.7579   998033   47.96%
   1372   785      284.8616   352      208.0000      307.7579  1023538   47.96%
   1396   801      290.9239   399      208.0000      306.7393  1053843   47.47%
   1411   816      283.3403   369      208.0000      306.7393  1082596   47.47%
   1427   832      274.0897   356      208.0000      306.7393  1111957   47.47%

GUB cover cuts applied:  99
Clique cuts applied:  156
Cover cuts applied:  21
Implied bound cuts applied:  64
Flow cuts applied:  19
Mixed integer rounding cuts applied:  62
Zero-half cuts applied:  106

Root node processing (before b&c):
  Real time             =    1.54 sec. (2118.39 ticks)
Sequential b&c:
  Real time             =  148.46 sec. (206733.80 ticks)
                          ------------
Total (root+branch&cut) =  150.00 sec. (208852.20 ticks)

Solution pool: 7 solutions saved.

MIP - Time limit exceeded, integer feasible:  Objective =  2.0800000000e+02
Current MIP best bound =  3.0673929995e+02 (gap = 98.7393, 47.47%)
Solution time =  150.00 sec.  Iterations = 1113690  Nodes = 1433 (837)
Deterministic time = 208852.21 ticks  (1392.34 ticks/sec)


Incumbent solution
Variable Name           Solution Value
F                           208.000000
y8                            1.000000
y14                           1.000000
y31                           1.000000
y37                           1.000000
y50                           1.000000
y61                           1.000000
y64                           1.000000
y65                           1.000000
y66                           1.000000
y73                           1.000000
y82                           1.000000
y83                           1.000000
y96                           1.000000
y99                           1.000000
y107                          1.000000
y118                          1.000000
y128                          1.000000
y145                          1.000000
y156                          1.000000
y177                          1.000000
y179                          1.000000
y181                          1.000000
y192                          1.000000
y194                          1.000000
y197                          1.000000
y200                          1.000000
y206                          1.000000
y219                          1.000000
y225                          1.000000
y229                          1.000000
y231                          1.000000
y232                          1.000000
y239                          1.000000
y245                          1.000000
y262                          1.000000
y264                          1.000000
x17x96x1                      1.000000
x17x231x1                     1.000000
x41x65x1                      1.000000
x118x107x1                    1.000000
x139x118x1                    1.000000
x152x229x1                    1.000000
x160x14x1                     1.000000
x175x14x1                     1.000000
x229x156x1                    1.000000
x41x37x2                      1.000000
x47x231x2                     1.000000
x63x192x2                     1.000000
x63x206x2                     1.000000
x70x192x2                     1.000000
x70x262x2                     1.000000
x92x239x2                     1.000000
x150x206x2                    1.000000
x175x96x2                     1.000000
x196x229x2                    1.000000
x229x197x2                    1.000000
x246x37x2                     1.000000
x47x65x3                      1.000000
x92x262x3                     1.000000
x99x31x3                      1.000000
x99x181x3                     1.000000
x118x8x3                      1.000000
x150x61x3                     1.000000
x160x61x3                     1.000000
x213x118x3                    1.000000
x246x239x3                    1.000000
x252x99x3                     2.000000
x8x232x3                      1.000000
x8x245x3                      1.000000
x14x179x1                     1.000000
x14x232x1                     1.000000
x31x66x3                      2.000000
x37x177x2                     2.000000
x156x50x1                     1.000000
x50x0x1                       1.000000
x239x50x2                     1.000000
x50x0x2                       1.000000
x61x128x3                     2.000000
x96x64x1                      1.000000
x231x64x1                     1.000000
x64x0x1                       2.000000
x65x83x1                      1.000000
x65x225x3                     1.000000
x66x0x3                       2.000000
x197x73x2                     1.000000
x231x73x2                     1.000000
x73x0x2                       2.000000
x156x82x1                     1.000000
x82x0x1                       1.000000
x206x82x2                     1.000000
x82x0x2                       1.000000
x83x0x1                       1.000000
x177x83x2                     1.000000
x83x0x2                       1.000000
x96x264x2                     1.000000
x107x219x1                    2.000000
x128x0x3                      2.000000
x192x145x2                    1.000000
x197x145x2                    1.000000
x145x0x2                      2.000000
x177x245x2                    1.000000
x179x0x1                      1.000000
x262x179x2                    1.000000
x179x0x2                      1.000000
x181x194x3                    1.000000
x181x225x3                    1.000000
x192x200x2                    1.000000
x239x194x3                    1.000000
x194x0x3                      2.000000
x200x0x2                      1.000000
x262x200x3                    1.000000
x200x0x3                      1.000000
x206x264x2                    1.000000
x219x0x1                      2.000000
x225x0x3                      2.000000
x232x0x1                      1.000000
x232x0x3                      1.000000
x245x0x2                      1.000000
x245x0x3                      1.000000
x264x0x2                      2.000000
s17                           5.415979
s4                            6.720000
s12                           7.980000
s14                           7.314248
z17z14z1                      1.000000
s22                           7.740000
s23                           7.090000
s26                           8.390572
z17z26z1                      1.000000
s36                           7.330000
z17z36z1                      1.000000
s50                           8.980000
s51                           9.000000
z17z51z1                      1.000000
s54                           9.110000
s60                           8.020000
z17z60z1                      1.000000
s64                           9.400000
z17z64z1                      1.000000
s65                           7.770000
s77                           7.360000
s82                           9.270000
s83                           9.320000
s85                           6.530000
s88                           8.270000
z17z88z1                      1.000000
s93                           8.960000
s96                           8.240658
z17z96z1                      1.000000
s107                          7.607077
s111                          8.030000
s112                          7.180000
s113                          8.030000
s121                          7.850000
s131                          7.290000
z17z131z1                     1.000000
s140                          8.030000
s141                          7.290000
z17z141z1                     1.000000
s156                          7.653061
s178                          9.130000
s179                          8.815846
s180                          8.950000
s182                          6.880000
s184                          9.200000
z17z184z1                     1.000000
s219                          9.040000
z17z219z1                     1.000000
s220                          7.120000
s231                          7.492957
z17z231z1                     1.000000
s232                          8.930000
s255                          8.686260
z17z255z1                     1.000000
s41                           5.174037
z41z23z1                      1.000000
z41z26z1                      1.000000
z41z36z1                      1.000000
s37                           7.051244
z41z37z2                      1.000000
z41z51z1                      1.000000
z41z60z1                      1.000000
z41z64z1                      1.000000
z41z65z1                      1.000000
s73                           9.031473
z41z73z2                      1.000000
z41z88z1                      1.000000
s118                          6.000000
z41z131z1                     1.000000
s145                          9.020000
z41z145z2                     1.000000
s177                          8.117241
z41z177z2                     1.000000
s183                          7.270000
z41z184z1                     1.000000
s192                          7.461218
s197                          7.666151
z41z197z2                     1.000000
s200                          8.880000
s206                          7.394730
z41z206z2                     1.000000
s207                          9.090000
z41z219z1                     1.000000
s229                          6.252173
s239                          7.548259
s245                          9.420000
z41z255z1                     1.000000
s256                          7.980000
s259                          7.960000
s261                          7.710000
s262                          7.300000
s263                          6.000000
s264                          9.350000
z41z264z2                     1.000000
s47                           5.854549
s8                            7.342345
s30                           6.870000
s31                           8.055317
s61                           7.810000
z47z61z3                      1.000000
z47z65z3                      1.000000
s66                           9.270000
z47z66z3                      1.000000
z47z73z2                      1.000000
s109                          8.060000
s128                          8.960000
z47z128z3                     1.000000
z47z145z2                     1.000000
s181                          8.016323
z47z181z3                     1.000000
s194                          9.200000
z47z194z3                     1.000000
s225                          9.290000
z47z225z3                     1.000000
z47z231z2                     1.000000
z47z264z2                     1.000000
s63                           5.955204
z63z73z2                      1.000000
z63z145z2                     1.000000
z63z192z2                     1.000000
z63z206z2                     1.000000
z63z264z2                     1.000000
s70                           5.581362
z70z73z2                      1.000000
z70z145z2                     1.000000
z70z192z2                     1.000000
z70z197z2                     1.000000
z70z206z2                     1.000000
z70z261z2                     1.000000
z70z262z2                     1.000000
z70z264z2                     1.000000
s92                           5.562646
z92z61z3                      1.000000
z92z66z3                      1.000000
z92z73z2                      1.000000
z92z128z3                     1.000000
s133                          6.090000
z92z145z2                     1.000000
z92z181z3                     1.000000
z92z194z3                     1.000000
z92z197z2                     1.000000
z92z206z2                     1.000000
z92z225z3                     1.000000
z92z239z2                     1.000000
z92z262z3                     1.000000
z92z264z2                     1.000000
s99                           6.288465
z99z31z3                      1.000000
z99z66z3                      1.000000
z99z181z3                     1.000000
z99z194z3                     1.000000
z99z225z3                     1.000000
z118z8z3                      1.000000
z118z64z1                     1.000000
z118z66z3                     1.000000
z118z107z1                    1.000000
z118z225z3                    1.000000
s139                          4.319891
z139z14z1                     1.000000
z139z23z1                     1.000000
z139z26z1                     1.000000
z139z36z1                     1.000000
z139z51z1                     1.000000
z139z60z1                     1.000000
z139z64z1                     1.000000
z139z88z1                     1.000000
z139z107z1                    1.000000
z139z118z1                    1.000000
z139z131z1                    1.000000
z139z141z1                    1.000000
z139z156z1                    1.000000
s158                          6.000000
z139z182z1                    1.000000
z139z184z1                    1.000000
z139z219z1                    1.000000
z139z255z1                    1.000000
s150                          5.546362
z150z61z3                     1.000000
z150z66z3                     1.000000
z150z73z2                     1.000000
z150z128z3                    1.000000
z150z145z2                    1.000000
z150z177z2                    1.000000
z150z181z3                    1.000000
z150z194z3                    1.000000
z150z197z2                    1.000000
z150z206z2                    1.000000
z150z225z3                    1.000000
z150z264z2                    1.000000
s152                          4.547664
z152z14z1                     1.000000
z152z23z1                     1.000000
z152z26z1                     1.000000
z152z36z1                     1.000000
z152z51z1                     1.000000
z152z60z1                     1.000000
z152z64z1                     1.000000
z152z88z1                     1.000000
z152z107z1                    1.000000
z152z131z1                    1.000000
z152z141z1                    1.000000
z152z156z1                    1.000000
z152z182z1                    1.000000
z152z184z1                    1.000000
z152z219z1                    1.000000
z152z229z1                    1.000000
z152z255z1                    1.000000
z158z26z1                     1.000000
z158z51z1                     1.000000
z158z60z1                     1.000000
z158z64z1                     1.000000
z158z88z1                     1.000000
z158z184z1                    1.000000
z158z219z1                    1.000000
z158z255z1                    1.000000
s160                          5.856651
z160z14z1                     1.000000
z160z26z1                     1.000000
z160z51z1                     1.000000
z160z60z1                     1.000000
z160z61z3                     1.000000
z160z64z1                     1.000000
z160z66z3                     1.000000
z160z88z1                     1.000000
z160z128z3                    1.000000
z160z181z3                    1.000000
z160z184z1                    1.000000
z160z194z3                    1.000000
z160z219z1                    1.000000
z160z225z3                    1.000000
z160z255z1                    1.000000
s175                          5.849267
z175z14z1                     1.000000
z175z26z1                     1.000000
z175z51z1                     1.000000
z175z60z1                     1.000000
z175z64z1                     1.000000
z175z73z2                     1.000000
z175z88z1                     1.000000
z175z96z2                     1.000000
z175z145z2                    1.000000
z175z184z1                    1.000000
z175z219z1                    1.000000
z175z255z1                    1.000000
z175z264z2                    1.000000
s196                          4.112877
z196z37z2                     1.000000
z196z73z2                     1.000000
z196z145z2                    1.000000
z196z177z2                    1.000000
z196z192z2                    1.000000
z196z197z2                    1.000000
z196z206z2                    1.000000
z196z229z2                    1.000000
z196z261z2                    1.000000
z196z264z2                    1.000000
s213                          1.530000
z213z8z3                      1.000000
z213z30z3                     1.000000
z213z31z3                     1.000000
z213z61z3                     1.000000
z213z66z3                     1.000000
z213z99z3                     1.000000
z213z109z3                    1.000000
z213z118z3                    1.000000
z213z128z3                    1.000000
z213z133z3                    1.000000
z213z181z3                    1.000000
z213z194z3                    1.000000
z213z225z3                    1.000000
z229z64z1                     1.000000
z229z156z1                    1.000000
z229z197z2                    1.000000
z229z264z2                    1.000000
s246                          5.277046
z246z8z3                      1.000000
z246z30z3                     1.000000
z246z31z3                     1.000000
z246z37z2                     1.000000
z246z61z3                     1.000000
z246z66z3                     1.000000
z246z73z2                     1.000000
z246z109z3                    1.000000
z246z128z3                    1.000000
z246z145z2                    1.000000
z246z177z2                    1.000000
z246z181z3                    1.000000
z246z194z3                    1.000000
z246z197z2                    1.000000
z246z206z2                    1.000000
z246z225z3                    1.000000
z246z239z3                    1.000000
z246z264z2                    1.000000
s252                          5.130000
z252z8z3                      1.000000
z252z30z3                     1.000000
z252z31z3                     1.000000
z252z61z3                     1.000000
z252z66z3                     1.000000
z252z99z3                     1.000000
z252z109z3                    1.000000
z252z128z3                    1.000000
z252z181z3                    1.000000
z252z194z3                    1.000000
z252z225z3                    1.000000
z263z64z1                     1.000000
z263z66z3                     1.000000
z263z225z3                    1.000000
z4z64z1                       1.000000
z4z225z3                      1.000000
z8z232z3                      1.000000
z8z245z3                      1.000000
z14z64z1                      1.000000
z14z179z1                     1.000000
z14z219z1                     1.000000
z14z232z1                     1.000000
z26z64z1                      1.000000
z30z225z3                     1.000000
z31z66z3                      1.000000
z37z177z2                     1.000000
z61z128z3                     1.000000
z65z83z1                      1.000000
z65z225z3                     1.000000
z85z64z1                      1.000000
z85z225z3                     1.000000
z96z64z1                      1.000000
z96z264z2                     1.000000
z107z219z1                    1.000000
z131z255z1                    1.000000
z133z225z3                    1.000000
z141z64z1                     1.000000
z156z50z1                     1.000000
z156z64z1                     1.000000
z156z82z1                     1.000000
z177z83z2                     1.000000
z177z245z2                    1.000000
z181z194z3                    1.000000
z181z225z3                    1.000000
z182z64z1                     1.000000
z192z145z2                    1.000000
z192z200z2                    1.000000
z192z264z2                    1.000000
z197z73z2                     1.000000
z197z145z2                    1.000000
z206z73z2                     1.000000
z206z82z2                     1.000000
z206z145z2                    1.000000
z206z264z2                    1.000000
z231z64z1                     1.000000
z231z73z2                     1.000000
z239z50z2                     1.000000
z239z194z3                    1.000000
z239z264z2                    1.000000
z261z264z2                    1.000000
z262z179z2                    1.000000
z262z200z3                    1.000000
All other variables in the range 1-4818 are 0.
